c generated by sgen1
c Command: ./sgen1 -unsat -n 121 -s 100 
c http://www.cs.qub.ac.uk/~i.spence/sgen/
c Smallest unsolved problem at SAT 2009
p cnf 121 252
-2 -3 -4 0
-1 -3 -4 0
-1 -2 -4 0
-1 -2 -3 0
-6 -7 -8 0
-5 -7 -8 0
-5 -6 -8 0
-5 -6 -7 0
-10 -11 -12 0
-9 -11 -12 0
-9 -10 -12 0
-9 -10 -11 0
-14 -15 -16 0
-13 -15 -16 0
-13 -14 -16 0
-13 -14 -15 0
-18 -19 -20 0
-17 -19 -20 0
-17 -18 -20 0
-17 -18 -19 0
-22 -23 -24 0
-21 -23 -24 0
-21 -22 -24 0
-21 -22 -23 0
-26 -27 -28 0
-25 -27 -28 0
-25 -26 -28 0
-25 -26 -27 0
-30 -31 -32 0
-29 -31 -32 0
-29 -30 -32 0
-29 -30 -31 0
-34 -35 -36 0
-33 -35 -36 0
-33 -34 -36 0
-33 -34 -35 0
-38 -39 -40 0
-37 -39 -40 0
-37 -38 -40 0
-37 -38 -39 0
-42 -43 -44 0
-41 -43 -44 0
-41 -42 -44 0
-41 -42 -43 0
-46 -47 -48 0
-45 -47 -48 0
-45 -46 -48 0
-45 -46 -47 0
-50 -51 -52 0
-49 -51 -52 0
-49 -50 -52 0
-49 -50 -51 0
-54 -55 -56 0
-53 -55 -56 0
-53 -54 -56 0
-53 -54 -55 0
-58 -59 -60 0
-57 -59 -60 0
-57 -58 -60 0
-57 -58 -59 0
-62 -63 -64 0
-61 -63 -64 0
-61 -62 -64 0
-61 -62 -63 0
-66 -67 -68 0
-65 -67 -68 0
-65 -66 -68 0
-65 -66 -67 0
-70 -71 -72 0
-69 -71 -72 0
-69 -70 -72 0
-69 -70 -71 0
-74 -75 -76 0
-73 -75 -76 0
-73 -74 -76 0
-73 -74 -75 0
-78 -79 -80 0
-77 -79 -80 0
-77 -78 -80 0
-77 -78 -79 0
-82 -83 -84 0
-81 -83 -84 0
-81 -82 -84 0
-81 -82 -83 0
-86 -87 -88 0
-85 -87 -88 0
-85 -86 -88 0
-85 -86 -87 0
-90 -91 -92 0
-89 -91 -92 0
-89 -90 -92 0
-89 -90 -91 0
-94 -95 -96 0
-93 -95 -96 0
-93 -94 -96 0
-93 -94 -95 0
-98 -99 -100 0
-97 -99 -100 0
-97 -98 -100 0
-97 -98 -99 0
-102 -103 -104 0
-101 -103 -104 0
-101 -102 -104 0
-101 -102 -103 0
-106 -107 -108 0
-105 -107 -108 0
-105 -106 -108 0
-105 -106 -107 0
-110 -111 -112 0
-109 -111 -112 0
-109 -110 -112 0
-109 -110 -111 0
-114 -115 -116 0
-113 -115 -116 0
-113 -114 -116 0
-113 -114 -115 0
-117 -118 -119  0
-117 -118 -120  0
-117 -118 -121  0
-117 -119 -120  0
-117 -119 -121  0
-117 -120 -121  0
-118 -119 -120  0
-118 -119 -121  0
-118 -120 -121  0
-119 -120 -121  0
15 29 60 0
110 29 60 0
110 15 60 0
110 15 29 0
121 12 106 0
76 12 106 0
76 121 106 0
76 121 12 0
7 66 33 0
11 66 33 0
11 7 33 0
11 7 66 0
63 13 104 0
56 13 104 0
56 63 104 0
56 63 13 0
54 27 50 0
108 27 50 0
108 54 50 0
108 54 27 0
112 117 19 0
84 117 19 0
84 112 19 0
84 112 117 0
47 101 105 0
4 101 105 0
4 47 105 0
4 47 101 0
38 58 95 0
51 58 95 0
51 38 95 0
51 38 58 0
88 97 80 0
9 97 80 0
9 88 80 0
9 88 97 0
3 16 26 0
22 16 26 0
22 3 26 0
22 3 16 0
70 49 6 0
111 49 6 0
111 70 6 0
111 70 49 0
68 41 99 0
20 41 99 0
20 68 99 0
20 68 41 0
44 61 32 0
57 61 32 0
57 44 32 0
57 44 61 0
18 23 45 0
10 23 45 0
10 18 45 0
10 18 23 0
62 77 73 0
118 77 73 0
118 62 73 0
118 62 77 0
28 8 98 0
103 8 98 0
103 28 98 0
103 28 8 0
120 115 1 0
65 115 1 0
65 120 1 0
65 120 115 0
86 14 42 0
94 14 42 0
94 86 42 0
94 86 14 0
93 5 78 0
48 5 78 0
48 93 78 0
48 93 5 0
35 64 46 0
52 64 46 0
52 35 46 0
52 35 64 0
36 25 116 0
87 25 116 0
87 36 116 0
87 36 25 0
72 91 21 0
79 91 21 0
79 72 21 0
79 72 91 0
67 71 102 0
31 71 102 0
31 67 102 0
31 67 71 0
92 74 34 0
17 74 34 0
17 92 34 0
17 92 74 0
40 43 90 0
109 43 90 0
109 40 90 0
109 40 43 0
96 75 83 0
53 75 83 0
53 96 83 0
53 96 75 0
119 89 55 0
59 89 55 0
59 119 55 0
59 119 89 0
107 113 37 0
69 113 37 0
69 107 37 0
69 107 113 0
2 85 81 0
39 85 81 0
39 2 81 0
39 2 85 0
82 114 30  0
82 114 24  0
82 114 100  0
82 30 24  0
82 30 100  0
82 24 100  0
114 30 24  0
114 30 100  0
114 24 100  0
30 24 100  0
